(set-info :Origin "This instance was generated by: BanditFuzz-- an RL fuzzer for SMT solvers" )
(set-info :Author "Joe Scott, Fed Mora, Vijay Ganesh" )
(set-info :Contact "Joe Scott, joseph.scott@uwaterloo.ca")
(set-logic QF_BV)
(declare-const bool_0 Bool)
(declare-const bool_1 Bool)
(declare-const bool_2 Bool)
(declare-const bool_3 Bool)
(declare-const bool_4 Bool)
(declare-const bv_0 (_ BitVec 32))
(declare-const bv_1 (_ BitVec 32))
(declare-const bv_2 (_ BitVec 32))
(declare-const bv_3 (_ BitVec 32))
(declare-const bv_4 (_ BitVec 32))
(assert (bvuge (bvxnor (bvor bv_4 #xb6609f4b ) (bvor #xbef3ecc8  bv_3)) (bvsmod (bvxnor #x13c3eef9  #x2845a6da ) (bvurem #x7d187eb9  bv_3))))
(assert (bvule (bvsdiv (bvor bv_3 bv_2) (bvxnor #x18c26def  #xe96b2e14 )) (bvsrem (bvsrem bv_2 #xa048cca1 ) (bvurem #x47905bd7  #x47aa0a54 ))))
(assert (xor (not (bvule #x1d2a0d65  bv_0)) (bvult (bvadd bv_2 #xc0713afa ) (bvurem bv_0 #xa8f5c025 ))))
(assert (bvsle (bvshl (bvadd #x12ecb2d8  #x011afb6f ) (bvurem bv_4 #xfe2e0a5b )) (bvand (bvnand #xb31c43d3  #x0964b45d ) (bvand bv_2 #x8c7cde8e ))))
(assert (bvult (bvurem (bvor bv_3 bv_0) (bvsrem #x623e4608  #xd7b5e97f )) (bvnor (bvurem #xb2cd1300  #xd997929d ) (bvnor bv_2 bv_1))))
(check-sat)
(exit)
